NAME: I15892-n45-k4
COMMENT : (Fake et al, No of trucks: 4, Optimal value: )
TYPE : CVRP
DIMENSION : 45
EDGE_WEIGHT_TYPE : EUC_2D
CAPACITY : 30
NODE_COORD_SECTION
1 709 304
2 839 584
3 685 307
4 938 550
5 860 941
6 39 431
7 822 697
8 47 568
9 687 144
10 375 94
11 666 540
12 2 794
13 986 85
14 843 998
15 421 553
16 516 141
17 472 899
18 448 926
19 709 519
20 207 392
21 916 389
22 685 924
23 424 664
24 6 38
25 953 52
26 503 426
27 590 222
28 92 767
29 477 925
30 698 799
31 583 824
32 316 286
33 308 256
34 1 197
35 493 972
36 938 990
37 981 958
38 696 871
39 132 663
40 531 69
41 868 104
42 662 311
43 306 504
44 705 257
45 507 665
DEMAND_SECTION
1 0
2 2
3 1
4 1
5 3
6 2
7 2
8 3
9 4
10 3
11 4
12 2
13 2
14 4
15 1
16 5
17 2
18 2
19 3
20 1
21 2
22 3
23 4
24 2
25 1
26 2
27 2
28 3
29 1
30 2
31 3
32 5
33 5
34 3
35 3
36 1
37 2
38 1
39 3
40 2
41 2
42 3
43 3
44 3
45 4
DEPOT_SECTION
 1
 -1
 EOF 